c FILE: DSJC250.5
c
c SOURCE: David Johnson (dsj@research.att.com)
c
c DESCRIPTION: Random graph used in the paper
c              "Optimization by Simulated Annealing: An
c               Experimental Evaluation; Part II, Graph
c               Coloring and Number Partitioning" by
c              David S. Johnson, Cecilia R. Aragon, 
c              Lyle A. McGeoch and Catherine Schevon
c              Operations Research, 39, 378-406 (1991)
c
p edge 250 31336
e 12 8
e 13 8
e 14 8
e 15 8
e 16 8
e 17 16
e 18 8
e 18 16
e 21 16
e 22 8
e 22 16
e 23 8
e 24 8
e 25 8
e 25 16
e 26 16
e 28 24
e 29 8
e 33 24
e 34 8
e 34 24
e 35 8
e 35 24
e 36 8
e 36 24
e 38 8
e 38 16
e 39 16
e 39 24
e 39 32
e 40 16
e 40 32
e 41 8
e 41 16
e 41 24
e 41 32
e 41 40
e 42 16
e 42 24
e 42 40
e 43 8
e 43 16
e 43 32
e 44 8
e 44 16
e 44 40
e 45 8
e 45 24
e 45 32
e 46 8
e 46 16
e 46 24
e 46 32
e 46 40
e 47 8
e 47 16
e 47 24
e 47 32
e 47 40
e 48 8
e 48 16
e 48 24
e 48 32
e 48 40
e 49 32
e 49 40
e 50 8
e 50 16
e 50 32
e 51 8
e 51 16
e 51 24
e 51 40
e 51 48
e 52 24
e 52 32
e 52 40
e 53 16
e 53 24
e 54 8
e 54 16
e 54 24
e 54 48
e 55 8
e 56 16
e 56 24
e 56 40
e 56 48
e 57 16
e 57 48
e 57 56
e 58 16
e 58 40
e 58 48
e 58 56
e 59 16
e 59 40
e 59 48
e 60 16
e 60 32
e 60 48
e 61 48
e 62 24
e 62 32
e 62 40
e 62 56
e 63 40
e 64 16
e 64 24
e 64 32
e 65 8
e 65 24
e 65 32
e 65 56
e 66 16
e 66 56
e 66 64
e 67 8
e 67 16
e 67 32
e 67 56
e 68 24
e 68 56
e 69 16
e 69 24
e 69 40
e 69 48
e 69 56
e 69 64
e 70 8
e 70 24
e 70 32
e 70 40
e 71 8
e 71 16
e 71 24
e 71 32
e 71 40
e 72 16
e 72 32
e 72 40
e 72 48
e 72 64
e 73 8
e 73 32
e 73 40
e 73 48
e 73 64
e 73 72
e 74 16
e 74 32
e 74 40
e 74 48
e 74 56
e 74 64
e 75 56
e 75 64
e 76 8
e 76 16
e 76 24
e 76 40
e 76 48
e 76 56
e 76 72
e 77 8
e 77 40
e 78 8
e 78 16
e 78 24
e 78 32
e 78 40
e 78 48
e 78 56
e 78 64
e 79 8
e 79 16
e 79 64
e 80 16
e 80 32
e 80 48
e 80 72
e 81 8
e 81 16
e 81 32
e 81 56
e 81 64
e 81 72
e 81 80
e 82 24
e 82 32
e 82 40
e 82 48
e 82 72
e 82 80
e 83 16
e 83 24
e 83 72
e 84 8
e 84 24
e 84 40
e 84 72
e 84 80
e 85 8
e 85 16
e 85 24
e 85 32
e 85 40
e 85 80
e 86 8
e 86 16
e 86 32
e 86 48
e 86 56
e 86 64
e 86 72
e 86 80
e 87 16
e 87 32
e 87 48
e 87 56
e 87 64
e 87 72
e 88 8
e 88 16
e 88 24
e 88 48
e 88 56
e 88 64
e 88 72
e 88 80
e 89 40
e 89 48
e 89 56
e 89 64
e 89 80
e 89 88
e 90 48
e 90 56
e 90 80
e 90 88
e 91 40
e 91 56
e 91 64
e 91 72
e 91 88
e 92 8
e 92 24
e 92 48
e 92 80
e 93 16
e 93 24
e 93 32
e 93 40
e 93 48
e 93 64
e 93 72
e 93 80
e 94 8
e 94 24
e 94 32
e 94 40
e 94 48
e 94 56
e 94 80
e 95 8
e 95 40
e 95 48
e 95 56
e 95 64
e 96 8
e 96 24
e 96 40
e 96 48
e 96 64
e 96 72
e 97 8
e 97 16
e 97 32
e 97 40
e 97 72
e 97 88
e 98 8
e 98 16
e 98 24
e 98 32
e 98 40
e 98 72
e 98 96
e 99 8
e 99 16
e 99 40
e 99 48
e 99 80
e 99 88
e 100 8
e 100 24
e 100 48
e 100 56
e 100 64
e 100 72
e 100 88
e 100 96
e 101 8
e 101 16
e 101 24
e 101 32
e 101 40
e 101 48
e 101 56
e 101 64
e 101 72
e 102 16
e 102 24
e 102 32
e 102 40
e 102 64
e 102 72
e 102 80
e 103 8
e 103 24
e 103 32
e 103 40
e 103 96
e 104 8
e 104 16
e 104 24
e 104 40
e 104 48
e 104 56
e 104 72
e 104 80
e 105 8
e 105 24
e 105 48
e 105 72
e 105 88
e 105 96
e 105 104
e 106 8
e 106 16
e 106 24
e 106 32
e 106 72
e 106 96
e 107 8
e 107 32
e 107 48
e 107 72
e 107 80
e 107 96
e 107 104
e 108 8
e 108 16
e 108 32
e 108 48
e 108 64
e 109 32
e 109 64
e 109 72
e 109 80
e 110 8
e 110 32
e 110 40
e 110 56
e 110 64
e 110 72
e 110 104
e 111 8
e 111 16
e 111 32
e 111 48
e 111 64
e 111 72
e 111 80
e 111 96
e 112 16
e 112 24
e 112 40
e 112 48
e 112 56
e 112 64
e 112 104
e 113 24
e 113 32
e 113 40
e 113 96
e 113 104
e 113 112
e 114 16
e 114 32
e 114 40
e 114 56
e 114 64
e 114 72
e 114 80
e 114 104
e 115 40
e 115 64
e 115 96
e 115 112
e 116 16
e 116 40
e 116 64
e 116 72
e 116 80
e 116 104
e 116 112
e 117 8
e 117 32
e 117 40
e 117 48
e 117 56
e 117 88
e 117 96
e 117 104
e 117 112
e 118 8
e 118 24
e 118 32
e 118 48
e 118 56
e 118 64
e 118 72
e 118 96
e 118 104
e 119 16
e 119 24
e 119 56
e 119 88
e 119 96
e 119 104
e 120 16
e 120 64
e 120 72
e 120 88
e 120 96
e 120 104
e 121 16
e 121 24
e 121 56
e 121 72
e 121 80
e 121 112
e 121 120
e 122 32
e 122 48
e 122 56
e 122 64
e 122 72
e 122 88
e 122 112
e 123 16
e 123 32
e 123 40
e 123 48
e 123 56
e 123 80
e 123 104
e 124 8
e 124 32
e 124 40
e 124 72
e 124 80
e 124 88
e 124 96
e 124 104
e 124 120
e 125 24
e 125 72
e 125 104
e 125 112
e 125 120
e 126 8
e 126 24
e 126 72
e 126 80
e 126 88
e 126 104
e 127 16
e 127 24
e 127 32
e 127 48
e 127 64
e 127 88
e 128 16
e 128 32
e 128 48
e 128 56
e 128 64
e 128 88
e 128 104
e 128 112
e 129 8
e 129 64
e 129 72
e 129 80
e 129 88
e 129 96
e 129 104
e 129 112
e 129 120
e 129 128
e 130 8
e 130 16
e 130 24
e 130 48
e 130 64
e 130 72
e 130 80
e 130 96
e 130 120
e 130 128
e 131 8
e 131 16
e 131 40
e 131 56
e 131 64
e 131 80
e 131 120
e 131 128
e 132 8
e 132 16
e 132 24
e 132 32
e 132 40
e 132 56
e 132 64
e 132 80
e 132 96
e 132 128
e 133 8
e 133 40
e 133 48
e 133 56
e 133 80
e 133 88
e 133 96
e 133 104
e 133 112
e 133 120
e 134 16
e 134 40
e 134 80
e 134 88
e 134 96
e 134 104
e 134 120
e 134 128
e 135 8
e 135 24
e 135 32
e 135 56
e 135 64
e 135 80
e 135 88
e 135 96
e 135 104
e 135 128
e 136 8
e 136 24
e 136 32
e 136 40
e 136 48
e 136 56
e 136 72
e 136 96
e 136 104
e 136 112
e 137 8
e 137 16
e 137 48
e 137 56
e 137 88
e 137 96
e 137 104
e 137 112
e 137 120
e 137 128
e 138 8
e 138 16
e 138 24
e 138 32
e 138 48
e 138 56
e 138 64
e 138 72
e 138 88
e 138 96
e 138 112
e 138 136
e 139 32
e 139 40
e 139 48
e 139 56
e 139 72
e 139 96
e 139 112
e 139 120
e 140 8
e 140 48
e 140 56
e 140 72
e 140 88
e 140 96
e 140 104
e 140 112
e 140 128
e 141 16
e 141 56
e 141 64
e 141 80
e 141 88
e 141 104
e 141 112
e 141 128
e 141 136
e 142 40
e 142 48
e 142 56
e 142 72
e 142 104
e 142 120
e 143 16
e 143 48
e 143 56
e 143 80
e 143 96
e 143 104
e 143 112
e 143 120
e 143 136
e 144 8
e 144 16
e 144 32
e 144 40
e 144 48
e 144 56
e 144 64
e 144 80
e 144 88
e 144 96
e 144 112
e 144 120
e 144 136
e 145 16
e 145 24
e 145 32
e 145 56
e 145 80
e 145 88
e 145 104
e 145 112
e 145 128
e 145 136
e 146 8
e 146 16
e 146 40
e 146 56
e 146 80
e 146 120
e 146 136
e 147 8
e 147 32
e 147 48
e 147 64
e 147 80
e 147 88
e 147 104
e 147 120
e 147 144
e 148 16
e 148 32
e 148 40
e 148 48
e 148 64
e 148 72
e 148 80
e 148 104
e 148 112
e 148 120
e 148 136
e 148 144
e 149 24
e 149 40
e 149 48
e 149 72
e 149 80
e 149 88
e 149 104
e 149 120
e 149 136
e 149 144
e 150 8
e 150 16
e 150 24
e 150 32
e 150 48
e 150 56
e 150 64
e 150 80
e 150 96
e 150 104
e 150 112
e 150 120
e 150 136
e 151 8
e 151 24
e 151 56
e 151 96
e 151 104
e 151 120
e 151 128
e 151 136
e 151 144
e 152 16
e 152 32
e 152 48
e 152 80
e 152 112
e 152 144
e 153 8
e 153 16
e 153 24
e 153 32
e 153 48
e 153 80
e 153 88
e 153 128
e 153 144
e 153 152
e 154 8
e 154 16
e 154 32
e 154 40
e 154 64
e 154 88
e 154 128
e 154 144
e 154 152
e 155 32
e 155 40
e 155 80
e 155 112
e 155 136
e 155 144
e 155 152
e 156 16
e 156 24
e 156 32
e 156 56
e 156 64
e 156 72
e 156 104
e 156 112
e 156 128
e 156 136
e 156 144
e 156 152
e 157 8
e 157 16
e 157 24
e 157 48
e 157 64
e 157 72
e 157 80
e 157 88
e 157 104
e 157 120
e 157 144
e 157 152
e 158 48
e 158 56
e 158 64
e 158 72
e 158 112
e 158 136
e 158 144
e 159 8
e 159 32
e 159 40
e 159 80
e 159 104
e 159 112
e 159 136
e 160 16
e 160 24
e 160 48
e 160 56
e 160 72
e 160 96
e 160 112
e 160 120
e 160 144
e 160 152
e 161 8
e 161 24
e 161 72
e 161 104
e 161 112
e 161 152
e 162 16
e 162 32
e 162 40
e 162 48
e 162 80
e 162 96
e 162 128
e 162 136
e 162 160
e 163 16
e 163 48
e 163 80
e 163 88
e 163 96
e 163 104
e 163 128
e 163 144
e 163 160
e 164 8
e 164 16
e 164 32
e 164 40
e 164 56
e 164 64
e 164 72
e 164 96
e 164 104
e 164 112
e 164 128
e 164 160
e 165 16
e 165 24
e 165 40
e 165 48
e 165 56
e 165 80
e 165 88
e 165 120
e 165 144
e 165 152
e 165 160
e 166 8
e 166 16
e 166 24
e 166 40
e 166 56
e 166 88
e 166 96
e 166 104
e 166 112
e 166 120
e 166 144
e 166 160
e 167 16
e 167 24
e 167 32
e 167 40
e 167 56
e 167 64
e 167 96
e 167 104
e 167 112
e 167 120
e 167 136
e 167 144
e 167 160
e 168 24
e 168 40
e 168 56
e 168 72
e 168 80
e 168 88
e 168 96
e 168 112
e 168 144
e 168 152
e 168 160
e 169 16
e 169 64
e 169 72
e 169 96
e 169 136
e 169 152
e 169 160
e 170 16
e 170 24
e 170 40
e 170 72
e 170 88
e 170 96
e 170 104
e 170 112
e 170 128
e 170 136
e 170 144
e 170 160
e 171 8
e 171 16
e 171 40
e 171 56
e 171 72
e 171 80
e 171 104
e 171 120
e 171 152
e 171 168
e 172 8
e 172 16
e 172 40
e 172 48
e 172 88
e 172 96
e 172 112
e 172 120
e 172 160
e 172 168
e 173 8
e 173 16
e 173 24
e 173 32
e 173 48
e 173 64
e 173 72
e 173 80
e 173 88
e 173 104
e 173 120
e 173 128
e 173 152
e 173 168
e 174 16
e 174 48
e 174 56
e 174 72
e 174 80
e 174 104
e 174 152
e 174 168
e 175 16
e 175 32
e 175 40
e 175 48
e 175 56
e 175 88
e 175 96
e 175 120
e 175 128
e 175 136
e 175 144
e 175 152
e 176 40
e 176 88
e 176 96
e 176 112
e 176 120
e 176 128
e 176 136
e 176 144
e 176 152
e 176 168
e 177 32
e 177 64
e 177 96
e 177 112
e 177 136
e 177 152
e 177 168
e 178 8
e 178 16
e 178 40
e 178 112
e 178 144
e 178 152
e 178 168
e 179 8
e 179 24
e 179 40
e 179 56
e 179 72
e 179 80
e 179 88
e 179 96
e 179 104
e 179 120
e 179 144
e 179 152
e 179 160
e 179 168
e 179 176
e 180 16
e 180 40
e 180 56
e 180 64
e 180 72
e 180 96
e 180 104
e 180 112
e 180 128
e 180 144
e 180 152
e 180 160
e 180 176
e 181 8
e 181 40
e 181 56
e 181 64
e 181 72
e 181 88
e 181 152
e 181 168
e 181 176
e 182 32
e 182 40
e 182 64
e 182 72
e 182 88
e 182 96
e 182 104
e 182 152
e 182 160
e 182 176
e 183 16
e 183 32
e 183 72
e 183 80
e 183 88
e 183 104
e 183 112
e 183 128
e 183 136
e 183 144
e 183 160
e 184 16
e 184 24
e 184 48
e 184 56
e 184 64
e 184 80
e 184 88
e 184 120
e 184 128
e 184 152
e 184 160
e 184 168
e 184 176
e 185 8
e 185 24
e 185 32
e 185 48
e 185 72
e 185 80
e 185 96
e 185 104
e 185 136
e 185 144
e 185 152
e 185 184
e 186 8
e 186 16
e 186 24
e 186 32
e 186 56
e 186 72
e 186 136
e 186 144
e 186 160
e 186 168
e 186 184
e 187 40
e 187 48
e 187 56
e 187 64
e 187 80
e 187 88
e 187 96
e 187 112
e 187 120
e 187 136
e 187 144
e 187 152
e 187 176
e 187 184
e 188 8
e 188 16
e 188 24
e 188 48
e 188 56
e 188 64
e 188 72
e 188 88
e 188 96
e 188 160
e 188 176
e 189 8
e 189 16
e 189 64
e 189 80
e 189 88
e 189 112
e 189 136
e 189 152
e 189 184
e 190 8
e 190 16
e 190 32
e 190 40
e 190 48
e 190 72
e 190 88
e 190 96
e 190 104
e 190 112
e 190 120
e 190 128
e 190 144
e 190 152
e 190 168
e 190 176
e 191 8
e 191 16
e 191 24
e 191 32
e 191 40
e 191 88
e 191 96
e 191 104
e 191 112
e 191 128
e 191 136
e 191 160
e 191 184
e 192 16
e 192 32
e 192 40
e 192 56
e 192 72
e 192 80
e 192 88
e 192 96
e 192 104
e 192 136
e 192 152
e 192 160
e 192 168
e 192 176
e 192 184
e 193 8
e 193 16
e 193 24
e 193 32
e 193 40
e 193 64
e 193 72
e 193 104
e 193 120
e 193 184
e 194 8
e 194 16
e 194 24
e 194 32
e 194 48
e 194 56
e 194 72
e 194 80
e 194 96
e 194 112
e 194 128
e 194 160
e 194 176
e 194 184
e 194 192
e 195 8
e 195 32
e 195 40
e 195 48
e 195 56
e 195 72
e 195 88
e 195 96
e 195 120
e 195 128
e 195 136
e 195 144
e 195 152
e 195 184
e 196 8
e 196 16
e 196 24
e 196 40
e 196 48
e 196 56
e 196 80
e 196 96
e 196 104
e 196 112
e 196 128
e 196 136
e 196 144
e 196 152
e 196 184
e 196 192
e 197 24
e 197 40
e 197 56
e 197 88
e 197 96
e 197 112
e 197 120
e 197 128
e 197 136
e 197 160
e 197 168
e 197 184
e 198 24
e 198 32
e 198 40
e 198 48
e 198 56
e 198 64
e 198 72
e 198 80
e 198 120
e 198 136
e 198 160
e 198 168
e 198 176
e 198 184
e 198 192
e 199 16
e 199 24
e 199 40
e 199 48
e 199 56
e 199 96
e 199 104
e 199 128
e 199 136
e 199 144
e 199 160
e 199 168
e 199 192
e 200 8
e 200 24
e 200 32
e 200 40
e 200 56
e 200 80
e 200 88
e 200 104
e 200 112
e 200 120
e 200 128
e 200 144
e 200 152
e 200 160
e 200 168
e 200 184
e 201 32
e 201 56
e 201 88
e 201 104
e 201 120
e 201 136
e 201 152
e 201 184
e 201 192
e 201 200
e 202 8
e 202 40
e 202 48
e 202 56
e 202 64
e 202 96
e 202 104
e 202 120
e 202 136
e 202 144
e 202 152
e 202 160
e 202 168
e 202 192
e 203 8
e 203 16
e 203 24
e 203 32
e 203 40
e 203 72
e 203 112
e 203 120
e 203 136
e 203 144
e 203 184
e 203 200
e 204 24
e 204 80
e 204 88
e 204 96
e 204 104
e 204 112
e 204 120
e 204 136
e 204 144
e 204 152
e 204 160
e 204 176
e 204 184
e 204 192
e 204 200
e 205 8
e 205 16
e 205 40
e 205 56
e 205 64
e 205 72
e 205 80
e 205 88
e 205 96
e 205 136
e 205 152
e 205 176
e 205 184
e 206 24
e 206 40
e 206 56
e 206 72
e 206 96
e 206 112
e 206 144
e 206 152
e 206 160
e 206 168
e 206 176
e 207 16
e 207 24
e 207 32
e 207 40
e 207 72
e 207 80
e 207 96
e 207 104
e 207 128
e 207 136
e 207 144
e 207 152
e 207 176
e 207 192
e 207 200
e 208 8
e 208 16
e 208 24
e 208 32
e 208 48
e 208 72
e 208 80
e 208 88
e 208 96
e 208 112
e 208 120
e 208 136
e 208 144
e 208 152
e 208 160
e 208 168
e 208 176
e 208 184
e 208 200
e 209 72
e 209 96
e 209 128
e 209 136
e 209 160
e 209 168
e 209 176
e 209 200
e 209 208
e 210 8
e 210 24
e 210 64
e 210 72
e 210 88
e 210 120
e 210 144
e 210 160
e 210 168
e 210 184
e 210 192
e 210 200
e 210 208
e 211 24
e 211 32
e 211 48
e 211 64
e 211 80
e 211 104
e 211 120
e 211 128
e 211 152
e 211 168
e 211 176
e 211 184
e 211 200
e 211 208
e 212 16
e 212 24
e 212 40
e 212 48
e 212 56
e 212 96
e 212 112
e 212 128
e 212 144
e 212 152
e 212 160
e 212 184
e 212 192
e 212 208
e 213 8
e 213 16
e 213 48
e 213 56
e 213 64
e 213 72
e 213 80
e 213 88
e 213 96
e 213 104
e 213 120
e 213 136
e 213 144
e 213 152
e 213 160
e 213 168
e 213 176
e 213 184
e 213 200
e 214 32
e 214 40
e 214 56
e 214 72
e 214 80
e 214 88
e 214 96
e 214 112
e 214 120
e 214 144
e 214 192
e 214 200
e 214 208
e 215 16
e 215 32
e 215 40
e 215 48
e 215 72
e 215 80
e 215 120
e 215 128
e 215 136
e 215 160
e 216 8
e 216 24
e 216 40
e 216 56
e 216 64
e 216 80
e 216 96
e 216 104
e 216 120
e 216 144
e 216 152
e 216 192
e 216 200
e 216 208
e 217 16
e 217 24
e 217 48
e 217 80
e 217 104
e 217 120
e 217 128
e 217 136
e 217 152
e 217 168
e 217 192
e 217 200
e 217 208
e 217 216
e 218 16
e 218 40
e 218 48
e 218 56
e 218 72
e 218 88
e 218 96
e 218 104
e 218 112
e 218 120
e 218 160
e 218 168
e 218 176
e 218 184
e 218 192
e 218 200
e 219 16
e 219 24
e 219 40
e 219 80
e 219 112
e 219 144
e 219 160
e 219 168
e 219 200
e 219 208
e 219 216
e 220 8
e 220 48
e 220 80
e 220 112
e 220 120
e 220 168
e 220 176
e 220 208
e 221 16
e 221 24
e 221 64
e 221 88
e 221 136
e 221 144
e 221 152
e 221 200
e 222 16
e 222 40
e 222 64
e 222 88
e 222 112
e 222 120
e 222 128
e 222 144
e 222 168
e 222 192
e 222 200
e 222 208
e 223 16
e 223 32
e 223 48
e 223 56
e 223 72
e 223 80
e 223 96
e 223 104
e 223 112
e 223 120
e 223 136
e 223 144
e 223 152
e 223 160
e 223 168
e 223 184
e 223 192
e 223 200
e 223 216
e 224 8
e 224 24
e 224 32
e 224 48
e 224 56
e 224 80
e 224 88
e 224 96
e 224 112
e 224 128
e 224 136
e 224 144
e 224 200
e 224 216
e 225 8
e 225 16
e 225 24
e 225 32
e 225 40
e 225 48
e 225 88
e 225 104
e 225 128
e 225 152
e 225 176
e 225 184
e 225 200
e 225 208
e 225 216
e 226 8
e 226 24
e 226 32
e 226 48
e 226 80
e 226 96
e 226 136
e 226 152
e 226 184
e 226 192
e 226 208
e 226 216
e 226 224
e 227 16
e 227 48
e 227 64
e 227 72
e 227 96
e 227 120
e 227 152
e 227 160
e 227 200
e 227 224
e 228 16
e 228 40
e 228 48
e 228 64
e 228 96
e 228 112
e 228 128
e 228 144
e 228 152
e 228 160
e 228 168
e 228 184
e 228 216
e 229 8
e 229 40
e 229 64
e 229 80
e 229 88
e 229 104
e 229 112
e 229 128
e 229 144
e 229 152
e 229 160
e 229 176
e 229 184
e 229 192
e 229 200
e 230 8
e 230 16
e 230 32
e 230 56
e 230 72
e 230 80
e 230 96
e 230 104
e 230 112
e 230 120
e 230 128
e 230 136
e 230 144
e 230 152
e 230 168
e 230 184
e 230 192
e 230 208
e 230 216
e 230 224
e 231 8
e 231 16
e 231 24
e 231 48
e 231 72
e 231 80
e 231 88
e 231 128
e 231 160
e 231 168
e 231 176
e 232 24
e 232 32
e 232 64
e 232 72
e 232 88
e 232 104
e 232 152
e 232 160
e 232 176
e 232 184
e 232 216
e 232 224
e 233 16
e 233 32
e 233 40
e 233 56
e 233 112
e 233 136
e 233 160
e 233 176
e 233 184
e 233 192
e 233 208
e 233 216
e 233 224
e 234 8
e 234 32
e 234 48
e 234 72
e 234 80
e 234 88
e 234 104
e 234 136
e 234 144
e 234 176
e 234 184
e 234 224
e 235 8
e 235 24
e 235 64
e 235 72
e 235 80
e 235 96
e 235 104
e 235 136
e 235 160
e 235 200
e 235 224
e 235 232
e 236 24
e 236 32
e 236 40
e 236 48
e 236 56
e 236 72
e 236 104
e 236 128
e 236 136
e 236 144
e 236 160
e 236 200
e 236 208
e 236 216
e 236 232
e 237 16
e 237 40
e 237 48
e 237 56
e 237 72
e 237 80
e 237 88
e 237 112
e 237 120
e 237 152
e 237 208
e 238 24
e 238 32
e 238 56
e 238 80
e 238 88
e 238 104
e 238 128
e 238 136
e 238 144
e 238 160
e 238 168
e 238 176
e 238 184
e 238 208
e 238 216
e 238 224
e 238 232
e 239 16
e 239 32
e 239 40
e 239 48
e 239 88
e 239 112
e 239 128
e 239 152
e 239 160
e 239 168
e 239 176
e 239 184
e 239 200
e 239 208
e 239 216
e 239 224
e 239 232
e 240 16
e 240 24
e 240 56
e 240 64
e 240 80
e 240 104
e 240 120
e 240 128
e 240 136
e 240 168
e 240 192
e 240 200
e 240 208
e 240 224
e 240 232
e 241 16
e 241 72
e 241 88
e 241 112
e 241 152
e 241 184
e 241 192
e 241 200
e 241 208
e 241 216
e 241 224
e 241 232
e 242 80
e 242 88
e 242 96
e 242 104
e 242 120
e 242 128
e 242 136
e 242 144
e 242 192
e 242 200
e 242 208
e 242 216
e 242 232
e 243 8
e 243 24
e 243 32
e 243 48
e 243 64
e 243 72
e 243 80
e 243 88
e 243 104
e 243 120
e 243 128
e 243 152
e 243 160
e 243 192
e 243 208
e 243 216
e 244 8
e 244 16
e 244 32
e 244 40
e 244 56
e 244 72
e 244 88
e 244 120
e 244 136
e 244 168
e 244 216
e 244 224
e 244 232
e 245 8
e 245 16
e 245 24
e 245 56
e 245 64
e 245 72
e 245 80
e 245 88
e 245 104
e 245 112
e 245 128
e 245 144
e 245 152
e 245 160
e 245 168
e 245 176
e 245 184
e 245 192
e 245 200
e 245 216
e 245 224
e 245 232
e 246 16
e 246 24
e 246 32
e 246 48
e 246 56
e 246 64
e 246 72
e 246 88
e 246 96
e 246 104
e 246 112
e 246 120
e 246 136
e 246 152
e 246 160
e 246 184
e 246 192
e 246 200
e 246 208
e 246 216
e 246 224
e 247 16
e 247 24
e 247 32
e 247 40
e 247 80
e 247 104
e 247 120
e 247 128
e 247 136
e 247 152
e 247 184
e 247 224
e 248 8
e 248 16
e 248 24
e 248 32
e 248 40
e 248 72
e 248 80
e 248 104
e 248 112
e 248 120
e 248 160
e 248 176
e 248 184
e 248 200
e 248 216
e 248 224
e 248 240
e 249 16
e 249 24
e 249 32
e 249 56
e 249 64
e 249 72
e 249 80
e 249 88
e 249 104
e 249 112
e 249 120
e 249 128
e 249 176
e 249 208
e 249 216
e 249 224
e 249 232
e 249 240
e 249 248
e 250 48
e 250 64
e 250 72
e 250 80
e 250 96
e 250 104
e 250 112
e 250 136
e 250 144
e 250 152
e 250 176
e 250 192
e 250 200
e 250 224
e 250 248
